NAME          DCAP_3_4_2_500_SS353
ROWS
 N  OBJ
 L  CON1
 L  CON2
 L  CON3
 L  CON4
 L  CON5
 L  CON6
 L  CON7
 L  CON8
 L  CON9
 L  CON10
 L  CON11
 L  CON12
 E  CON13
 E  CON14
 E  CON15
 E  CON16
 E  CON17
 E  CON18
 E  CON19
 E  CON20
COLUMNS
    x[1,1]    OBJ       6.180167      CON1      1.000000    
    x[1,1]    CON7      -1.000000     CON8      -1.000000   
    x[1,2]    OBJ       5.039546      CON2      1.000000    
    x[1,2]    CON8      -1.000000   
    x[2,1]    OBJ       6.732585      CON3      1.000000    
    x[2,1]    CON9      -1.000000     CON10     -1.000000   
    x[2,2]    OBJ       7.443064      CON4      1.000000    
    x[2,2]    CON10     -1.000000   
    x[3,1]    OBJ       6.563535      CON5      1.000000    
    x[3,1]    CON11     -1.000000     CON12     -1.000000   
    x[3,2]    OBJ       6.054841      CON6      1.000000    
    x[3,2]    CON12     -1.000000   
    MARKER    'MARKER'                'INTORG'
    u[1,1]    OBJ       48.076654     CON1      -1.000000   
    u[1,2]    OBJ       49.466655     CON2      -1.000000   
    u[2,1]    OBJ       49.996186     CON3      -1.000000   
    u[2,2]    OBJ       32.230043     CON4      -1.000000   
    u[3,1]    OBJ       20.066487     CON5      -1.000000   
    u[3,2]    OBJ       27.484319     CON6      -1.000000   
    y[1,1,1]  OBJ       6.330438      CON7      0.911118    
    y[1,1,1]  CON13     1.000000    
    y[1,1,2]  OBJ       8.694672      CON8      1.111346    
    y[1,1,2]  CON14     1.000000    
    y[1,2,1]  OBJ       8.632503      CON7      1.073981    
    y[1,2,1]  CON15     1.000000    
    y[1,2,2]  OBJ       9.221007      CON8      0.783643    
    y[1,2,2]  CON16     1.000000    
    y[1,3,1]  OBJ       9.666676      CON7      0.953533    
    y[1,3,1]  CON17     1.000000    
    y[1,3,2]  OBJ       7.912736      CON8      1.418772    
    y[1,3,2]  CON18     1.000000    
    y[1,4,1]  OBJ       5.458340      CON7      0.914859    
    y[1,4,1]  CON19     1.000000    
    y[1,4,2]  OBJ       5.746175      CON8      1.087411    
    y[1,4,2]  CON20     1.000000    
    y[2,1,1]  OBJ       8.829911      CON9      0.911118    
    y[2,1,1]  CON13     1.000000    
    y[2,1,2]  OBJ       5.503118      CON10     1.111346    
    y[2,1,2]  CON14     1.000000    
    y[2,2,1]  OBJ       6.396997      CON9      1.073981    
    y[2,2,1]  CON15     1.000000    
    y[2,2,2]  OBJ       8.771883      CON10     0.783643    
    y[2,2,2]  CON16     1.000000    
    y[2,3,1]  OBJ       6.442757      CON9      0.953533    
    y[2,3,1]  CON17     1.000000    
    y[2,3,2]  OBJ       5.770732      CON10     1.418772    
    y[2,3,2]  CON18     1.000000    
    y[2,4,1]  OBJ       9.016510      CON9      0.914859    
    y[2,4,1]  CON19     1.000000    
    y[2,4,2]  OBJ       8.232609      CON10     1.087411    
    y[2,4,2]  CON20     1.000000    
    y[3,1,1]  OBJ       7.682719      CON11     0.911118    
    y[3,1,1]  CON13     1.000000    
    y[3,1,2]  OBJ       5.364847      CON12     1.111346    
    y[3,1,2]  CON14     1.000000    
    y[3,2,1]  OBJ       9.648457      CON11     1.073981    
    y[3,2,1]  CON15     1.000000    
    y[3,2,2]  OBJ       9.809591      CON12     0.783643    
    y[3,2,2]  CON16     1.000000    
    y[3,3,1]  OBJ       9.696804      CON11     0.953533    
    y[3,3,1]  CON17     1.000000    
    y[3,3,2]  OBJ       7.237873      CON12     1.418772    
    y[3,3,2]  CON18     1.000000    
    y[3,4,1]  OBJ       8.533574      CON11     0.914859    
    y[3,4,1]  CON19     1.000000    
    y[3,4,2]  OBJ       7.719535      CON12     1.087411    
    y[3,4,2]  CON20     1.000000    
    z[1,1]    OBJ       547.401162    CON13     1.000000    
    z[1,2]    OBJ       703.703779    CON14     1.000000    
    z[2,1]    OBJ       689.062277    CON15     1.000000    
    z[2,2]    OBJ       665.105998    CON16     1.000000    
    z[3,1]    OBJ       798.012267    CON17     1.000000    
    z[3,2]    OBJ       819.015889    CON18     1.000000    
    z[4,1]    OBJ       674.429793    CON19     1.000000    
    z[4,2]    OBJ       985.100705    CON20     1.000000    
    MARKER    'MARKER'                 'INTEND'
RHS
    RHS       CON1      -0.000000     CON2      -0.000000   
    RHS       CON3      -0.000000     CON4      -0.000000   
    RHS       CON5      -0.000000     CON6      -0.000000   
    RHS       CON7      -0.000000     CON8      -0.000000   
    RHS       CON9      -0.000000     CON10     -0.000000   
    RHS       CON11     -0.000000     CON12     -0.000000   
    RHS       CON13     1.000000      CON14     1.000000    
    RHS       CON15     1.000000      CON16     1.000000    
    RHS       CON17     1.000000      CON18     1.000000    
    RHS       CON19     1.000000      CON20     1.000000    
BOUNDS
 BV BOUND     u[1,1]  
 BV BOUND     u[1,2]  
 BV BOUND     u[2,1]  
 BV BOUND     u[2,2]  
 BV BOUND     u[3,1]  
 BV BOUND     u[3,2]  
 BV BOUND     y[1,1,1]
 BV BOUND     y[1,1,2]
 BV BOUND     y[1,2,1]
 BV BOUND     y[1,2,2]
 BV BOUND     y[1,3,1]
 BV BOUND     y[1,3,2]
 BV BOUND     y[1,4,1]
 BV BOUND     y[1,4,2]
 BV BOUND     y[2,1,1]
 BV BOUND     y[2,1,2]
 BV BOUND     y[2,2,1]
 BV BOUND     y[2,2,2]
 BV BOUND     y[2,3,1]
 BV BOUND     y[2,3,2]
 BV BOUND     y[2,4,1]
 BV BOUND     y[2,4,2]
 BV BOUND     y[3,1,1]
 BV BOUND     y[3,1,2]
 BV BOUND     y[3,2,1]
 BV BOUND     y[3,2,2]
 BV BOUND     y[3,3,1]
 BV BOUND     y[3,3,2]
 BV BOUND     y[3,4,1]
 BV BOUND     y[3,4,2]
 BV BOUND     z[1,1]  
 BV BOUND     z[1,2]  
 BV BOUND     z[2,1]  
 BV BOUND     z[2,2]  
 BV BOUND     z[3,1]  
 BV BOUND     z[3,2]  
 BV BOUND     z[4,1]  
 BV BOUND     z[4,2]  
ENDATA
